c --- [ banner ] -------------------------------------------------------------
c 
c CaDiCaL Radically Simplified CDCL SAT Solver
c Copyright (c) 2016-2021 A. Biere, M. Fleury, N. Froleyks
c 
c Version 1.5.2 9c38a080b32c28d805e8e6ca21849856b0cda605
c g++ (Ubuntu 7.5.0-3ubuntu1~18.04) 7.5.0 -Wall -Wextra -O3 -DNDEBUG
c Wed Feb 16 23:15:36 EST 2022 Linux fac-vanhoeve01 5.4.0-99-generic x86_64
c 
c --- [ parsing input ] ------------------------------------------------------
c 
c reading DIMACS file from '<stdin>' (use '-h' for a list of common options)
c found 'p cnf 2692 7976' header
c parsed 7976 clauses in 0.00 seconds process time
c disconnecting from '<stdin>'
c after reading 106558 bytes 0.1 MB
c 
c --- [ options ] ------------------------------------------------------------
c 
c all options are set to their default value
c 
c --- [ solving ] ------------------------------------------------------------
c 
c time measured in process time since initialization
c 
c  seconds  reductions  redundant irredundant
c         MB    restarts       trail    variables
c          level   conflicts       glue      remaining
c 
c *  0.00  5  0 0   0    0    0  0% 0 7974 2618 97%
c {  0.01  5  0 0   0    0    0  0% 0 7974 2618 97%
c -  0.02  5 56 1  36  303  287 81% 7 7902 2618 97%
c -  0.07  6 34 2 146  904  734 82% 9 7902 2618 97%
c }  0.07  6 32 2 146 1000  814 79% 9 7902 2618 97%
c [  0.07  6  0 2 146 1000  814  0% 0 7902 2618 97%
c O  0.07  6 21 2 146 1002  816 96% 11 7902 2618 97%
c -  0.12  6 16 3 146 1806  965 93% 13 7902 2618 97%
c ]  0.19  6 17 3 147 3001 1821 93% 13 7902 2618 97%
c {  0.19  6 32 3 147 3001 1821 79% 9 7902 2618 97%
c -  0.19  6 32 4 148 3006 1317 79% 9 7902 2618 97%
c F  0.19  6 32 4 148 3007 1318 79% 9 7902 2618 97%
c s  0.20  6 30 4 175 3217 1504 80% 9 7902 2618 97%
c e  0.23  6 30 4 175 3217   35 80% 9 5684 885 33%
c s  0.23  6 30 4 175 3217   31 80% 9 5684 885 33%
c -  0.29  6 22 5 188 4507 1238 87% 8 5684 885 33%
c p  0.32  6 22 5 261 5002 1769 87% 9 5684 882 33%
c #  0.36  6 21 5 319 6010 2724 87% 9 5684 882 33%
c -  0.38  7 21 6 388 6307 2365 87% 9 5675 882 33%
c }  0.42  7 22 6 517 7001 3019 86% 9 5675 882 33%
c 
c  seconds  reductions  redundant   irredundant
c         MB    restarts       trail      variables
c          level   conflicts        glue      remaining
c 
c [  0.42  7 17 6 517 7001 3019 282% 13 5675 882 33%
c -  0.48  6 20 7 518 8407 2919 202% 15 5675 882 33%
c I  0.56  6 20 7 519 10012 4303 165% 15 5675 882 33%
c -  0.60  7 21 8 520 10807 3252 155% 15 5675 882 33%
c -  0.74  7 21 9 522 13507 3498 133% 15 5675 882 33%
c s  0.77  7 21 9 522 13951 3889 131% 15 5670 882 33%
c s  0.79  7 21 9 522 13951 3886 131% 15 5670 882 33%
c ^  0.79  7 21 9 522 13951 3886 131% 15 5670 882 33%
c ]  0.84  7 21 9 522 15001 4759 127% 15 5670 882 33%
c {  0.84  7 22 9 522 15001 4759 86% 9 5670 882 33%
c p  0.84  7 22 9 523 15003 4763 86% 9 5670 882 33%
c B  0.84  7 22 9 523 15013 4773 86% 9 5670 882 33%
c -  0.92  7 22 10 760 16507 4173 86% 9 5670 882 33%
c -  1.07  6 21 11 1042 19809 4501 82% 9 5670 882 33%
c W  1.13  6 20 11 1093 21015 5504 79% 9 5670 882 33%
c -  1.24  7 20 12 1262 23409 5020 79% 9 5670 882 33%
c -  1.42  7 19 13 1510 27309 5516 78% 9 5670 882 33%
c F  1.45  7 19 13 1548 28016 6156 78% 9 5670 882 33%
c p  1.56  7 19 13 1895 30004 8012 78% 9 5670 882 33%
c s  1.58  7 19 13 1907 30058 8025 78% 9 5670 882 33%
c 
c  seconds  reductions     redundant irredundant
c         MB     restarts         trail    variables
c          level      conflicts       glue     remaining
c 
c s  1.61  7 19 13 1907 30058 8022 78% 9 5670 882 33%
c ^  1.61  7 19 13 1907 30058 8022 78% 9 5670 882 33%
c }  1.65  7 19 13 1991 31001 8877 78% 9 5670 882 33%
c [  1.65  7 21 13 1991 31001 8877 127% 15 5670 882 33%
c -  1.68  7 21 14 1991 31513 6415 124% 15 5670 882 33%
c -  1.94  7 20 15 1994 36013 6313 109% 14 5670 882 33%
c B  1.94  7 20 15 1994 36017 6317 109% 14 5670 882 33%
c -  2.25  7 20 16 1997 40814 6601 103% 15 5670 882 33%
c W  2.54  7 20 16 1998 45020 10174 100% 14 5670 882 33%
c -  2.60  7 20 17 1999 45916 7074 99% 14 5670 882 33%
c p  2.84  7 20 17 1999 50005 10358 97% 15 5670 882 33%
c -  2.92  7 20 18 1999 51316 7245 97% 15 5670 882 33%
c s  2.94  7 20 18 1999 51534 7362 97% 15 5670 882 33%
c w  2.95  7 20 18 1999 51534 7359 97% 15 5670 882 33%
c s  2.96  7 20 18 1999 51534 7353 97% 15 5670 882 33%
c ^  2.96  7 20 18 1999 51534 7353 97% 15 5670 882 33%
c O  3.15  7 20 18 2000 55021 9580 95% 15 5670 882 33%
c -  3.26  8 20 19 2002 57017 6944 95% 15 5670 882 33%
c ]  3.60  8 19 19 2006 63001 10845 93% 15 5670 882 33%
c {  3.60  8 19 19 2006 63001 10845 78% 9 5670 882 33%
c 
c  seconds  reductions     redundant irredundant
c         MB     restarts         trail    variables
c          level      conflicts       glue     remaining
c 
c -  3.60  8 19 20 2006 63018 6987 78% 9 5670 882 33%
c B  3.74  8 19 20 2222 66024 9660 79% 9 5670 882 33%
c -  3.91  8 19 21 2476 69318 8579 78% 9 5670 882 33%
c p  4.19  8 19 21 2870 75006 13852 80% 10 5670 882 33%
c -  4.24  9 19 22 2934 75920 10207 80% 10 5670 882 33%
c W  4.39  9 19 22 3152 78026 12165 80% 10 5670 882 33%
c s  4.42  9 19 22 3191 78381 12462 80% 10 5670 882 33%
c w  4.44  9 19 22 3191 78381 12460 80% 10 5670 882 33%
c e  4.45  9 19 22 3191 78381 12460 80% 10 5676 880 33%
c s  4.47  9 19 22 3191 78381 12456 80% 10 5676 880 33%
c ^  4.47  9 19 22 3191 78381 12456 80% 10 5676 880 33%
c -  4.71  8 19 23 3517 82820 11302 80% 10 5676 880 33%
c -  5.12  9 19 24 4020 90023 11813 80% 10 5676 880 33%
c #  5.18  9 19 24 4093 91027 12745 80% 10 5676 880 33%
c -  5.54  9 19 25 4670 97524 12761 80% 10 5676 880 33%
c p  5.98  9 19 25 5228 105006 19353 80% 10 5676 880 33%
c B  5.98  9 19 25 5234 105028 19375 80% 10 5676 880 33%
c -  6.01  9 19 26 5298 105324 13085 80% 10 5676 880 33%
c s  6.33  9 19 26 5801 110653 17942 80% 10 5676 880 33%
c w  6.35  9 19 26 5801 110653 17941 80% 10 5676 880 33%
c 
c  seconds  reductions      redundant  irredundant
c         MB     restarts          trail     variables
c          level      conflicts        glue      remaining
c 
c e  6.37  9 19 26 5801 110653 3917 80% 10 8094 565 21%
c s  6.38  9 19 26 5801 110653 3916 80% 10 8094 565 21%
c ^  6.38  9 19 26 5801 110653 3916 80% 10 8094 565 21%
c -  6.50  9 19 27 5953 113426 5114 72% 10 8094 565 21%
c W  6.87  9 19 27 6421 120029 11160 79% 10 8094 565 21%
c -  6.96 10 19 28 6524 121826 10517 80% 10 8094 565 21%
c }  7.21 10 19 28 6723 127003 15160 78% 10 8094 565 21%
c [  7.21 10 19 28 6723 127003 15160 146% 15 8094 565 21%
c -  7.39 10 20 29 6723 130526 12796 141% 15 8094 565 21%
c B  7.69 10 20 29 6728 136030 17805 133% 15 8094 565 21%
c -  7.88 10 21 30 6730 139530 13717 130% 15 8094 565 21%
c p  7.91 10 21 30 6730 140009 14129 129% 15 8094 565 21%
c -  8.45 10 22 31 6731 148834 12847 121% 16 8094 565 21%
c W  8.75 10 22 31 6732 153031 16224 119% 16 8094 565 21%
c -  9.07 11 24 32 6732 158434 13352 115% 17 8094 565 21%
c s  9.48 11 26 32 6732 164421 18699 112% 18 8094 565 21%
c w  9.51 11 26 32 6732 164421 18696 112% 18 8094 565 21%
c s  9.53 11 26 32 6732 164421 18692 112% 18 8094 565 21%
c -  9.82 11 26 33 6733 168336 14235 111% 18 8094 565 21%
c I  9.99 11 27 33 6735 171033 16539 109% 19 8094 565 21%
c 
c  seconds  reductions       redundant   irredundant
c         MB     restarts           trail      variables
c          level      conflicts          glue      remaining
c 
c - 10.48 11 27 34 6739 178539 14469 107% 19 8094 565 21%
c p 10.59 11 27 34 6739 180011 15821 107% 19 8094 565 21%
c - 11.22 11 27 35 6746 189040 14436 104% 19 8094 565 21%
c B 11.29 11 27 35 6746 190035 15312 104% 19 8094 565 21%
c - 11.94 11 28 36 6747 199840 14883 102% 19 8094 565 21%
c W 12.75 11 28 36 6754 210037 23731 100% 20 8094 565 21%
c - 12.83 11 28 37 6754 210941 15885 99% 20 8094 565 21%
c - 13.69 11 28 38 6761 222342 14990 98% 20 8094 565 21%
c p 13.88 11 28 38 6761 225011 17185 97% 20 8094 565 21%
c O 14.31 11 28 38 6762 231039 21905 97% 20 8094 565 21%
c - 14.49 12 28 39 6762 234042 15309 96% 20 8094 565 21%
c - 15.18 12 27 40 6763 246043 14529 94% 19 8094 565 21%
c B 15.60 12 27 40 6764 253040 19814 94% 19 8094 565 21%
c ] 15.71 12 27 40 6764 255004 21654 93% 19 8094 565 21%
c { 15.71 12 19 40 6764 255004 21654 78% 10 8094 565 21%
c - 15.91 12 19 41 6905 258343 16789 79% 10 8094 565 21%
c - 16.69 14 19 42 7905 270944 18783 80% 10 8094 565 21%
c p 16.95 14 19 42 8219 275011 22401 80% 10 8094 565 21%
c F 17.01 14 19 42 8245 276041 23352 81% 10 8094 565 21%
c - 17.55 14 19 43 8932 283844 20506 80% 10 8094 565 21%
c 
c  seconds  reductions        redundant  irredundant
c         MB      restarts           trail     variables
c          level       conflicts         glue      remaining
c 
c - 18.46 14 19 44 10135 297044 21816 81% 10 8094 565 21%
c B 18.66 14 19 44 10375 300042 24602 81% 10 8094 565 21%
c - 19.34 16 19 45 11005 310545 22442 80% 10 8094 565 21%
c - 20.33 16 19 46 12211 324345 23324 81% 10 8094 565 21%
c W 20.47 16 19 46 12296 325044 23962 81% 10 8094 565 21%
c p 20.84 16 19 46 12828 330012 28501 81% 10 8094 565 21%
c - 21.46 16 19 47 13468 338445 23803 81% 10 8094 565 21%
c # 22.35 16 19 47 14501 351045 35397 81% 10 8094 565 21%
c - 22.52 16 19 48 14666 352846 25073 81% 10 8094 565 21%
c - 23.54 16 19 49 15786 367548 25734 81% 10 8094 565 21%
c B 24.19 16 18 49 16371 378046 35002 81% 10 8094 565 21%
c - 24.51 16 18 50 16585 382548 25934 81% 10 8094 565 21%
c p 25.03 16 18 50 17058 390013 32790 81% 10 8094 564 21%
c s 25.09 16 18 50 17058 390013 32712 81% 10 8094 564 21%
c v 25.13 16 18 50 17058 390013 32712 81% 10 8083 564 21%
c w 25.17 16 18 50 17058 390013 32698 81% 10 8083 564 21%
c s 25.23 16 18 50 17058 390013 32692 81% 10 8078 564 21%
c - 25.83 13 18 51 17397 397848 27806 82% 10 8078 564 21%
c W 26.64 13 19 51 18315 406051 35396 82% 10 8078 564 21%
c - 27.22 13 18 52 18657 413448 28296 81% 10 8078 564 21%
c 
c  seconds  reductions        redundant  irredundant
c         MB      restarts           trail     variables
c          level       conflicts         glue      remaining
c 
c - 28.43 14 18 53 19551 429349 29245 81% 10 8078 564 21%
c F 28.82 14 18 53 19823 435052 34290 81% 10 8078 564 21%
c - 29.81 14 18 54 20963 445550 30389 81% 10 8078 564 21%
c p 30.63 14 18 54 21947 455013 39126 81% 10 8078 564 21%
c s 31.08 14 18 54 22357 459141 42930 81% 10 8078 564 21%
c w 31.14 14 18 54 22357 459141 42924 81% 10 8078 564 21%
c s 31.22 14 18 54 22357 459141 42916 81% 10 8078 564 21%
c - 31.51 14 18 55 22549 462050 31415 81% 10 8078 564 21%
c B 31.74 14 18 55 22773 465054 34099 81% 10 8078 564 21%
c - 32.88 14 18 56 23913 478850 31002 81% 10 8078 564 21%
c - 34.31 16 18 57 25325 495951 32287 81% 10 8078 564 21%
c W 34.45 16 18 57 25325 496055 32380 81% 10 8078 564 21%
c } 35.60 16 18 57 26360 511004 45777 82% 10 8078 564 21%
c [ 35.60 16 27 57 26360 511004 45777 93% 19 8078 564 21%
c - 35.75 17 27 58 26360 513352 32865 93% 19 8078 564 21%
c p 36.52 17 26 58 26360 525015 42994 92% 18 8078 563 21%
c W 36.95 18 27 58 26360 528059 45798 92% 18 8073 563 21%
c - 37.19 14 27 59 26360 531055 32442 92% 19 8073 563 21%
c s 37.61 14 27 59 26360 535947 36759 91% 19 8062 563 21%
c w 37.67 14 27 59 26360 535947 36757 91% 19 8062 563 21%
c 
c  seconds  reductions        redundant  irredundant
c         MB      restarts           trail     variables
c          level       conflicts         glue      remaining
c 
c s 37.75 14 27 59 26360 535947 36752 91% 19 8062 563 21%
c - 38.79 16 27 60 26367 549055 29906 91% 19 8062 563 21%
c I 39.77 16 27 60 26373 561062 39157 90% 19 8062 563 21%
c - 40.25 16 27 61 26375 567357 29026 90% 19 8062 563 21%
c - 41.59 16 26 62 26382 585960 28565 89% 19 8062 563 21%
c B 42.34 16 26 62 26389 595063 35531 89% 18 8062 563 21%
c p 42.74 16 27 62 26390 600015 40202 89% 19 8062 563 21%
c - 43.15 19 27 63 26390 604860 30438 89% 19 8062 563 21%
c - 44.86 19 29 64 26392 624061 31771 89% 20 8062 563 21%
c ] 45.47 19 29 64 26397 630065 37239 89% 20 8062 563 21%
c 1 45.47 19 29 64 26397 630065 37239 89% 20 8062 563 21%
c 
c --- [ result ] -------------------------------------------------------------
c 
s SATISFIABLE
v -1 -2 -3 -4 -5 -6 -7 -8 -9 -10 -11 -12 -13 -14 -15 16 -17 18 -19 20 21 -22
v -23 24 -25 -26 -27 -28 -29 -30 -31 -32 -33 -34 -35 -36 -37 -38 -39 -40 -41
v -42 -43 -44 -45 -46 47 -48 -49 -50 -51 -52 -53 -54 -55 -56 -57 -58 -59 -60
v -61 -62 -63 -64 -65 -66 -67 -68 69 70 71 72 73 -74 -75 -76 77 -78 -79 80 -81
v -82 -83 -84 -85 -86 -87 -88 -89 -90 -91 -92 -93 -94 -95 96 97 -98 -99 100
v -101 -102 103 -104 -105 -106 107 -108 -109 -110 111 -112 -113 -114 -115 -116
v -117 -118 -119 -120 -121 -122 -123 -124 -125 -126 -127 -128 -129 -130 131
v -132 133 -134 -135 -136 137 -138 -139 140 141 -142 -143 -144 -145 -146 -147
v -148 -149 -150 -151 -152 153 -154 -155 -156 -157 158 -159 -160 161 162 -163
v 164 -165 -166 167 168 -169 -170 -171 -172 173 -174 -175 -176 177 -178 179
v -180 -181 -182 -183 -184 -185 -186 -187 -188 -189 -190 -191 -192 -193 -194
v -195 -196 -197 198 -199 -200 -201 -202 -203 -204 -205 -206 -207 -208 -209
v 210 -211 212 -213 -214 -215 -216 -217 -218 -219 -220 -221 -222 -223 -224 225
v -226 -227 -228 -229 -230 231 232 233 234 -235 -236 -237 -238 -239 240 -241
v -242 -243 -244 -245 -246 -247 -248 -249 -250 -251 -252 253 254 255 -256 257
v -258 259 -260 -261 -262 -263 -264 -265 -266 -267 268 269 270 -271 272 273
v -274 275 -276 -277 -278 -279 -280 -281 -282 283 -284 285 286 -287 -288 -289
v 290 291 292 -293 294 -295 296 -297 -298 299 -300 301 -302 303 -304 305 306
v -307 -308 309 -310 -311 -312 -313 -314 315 316 -317 318 319 -320 -321 322
v -323 324 -325 -326 327 328 329 330 331 332 333 334 335 336 337 338 339 340
v 341 342 343 344 345 346 347 348 349 350 351 352 353 354 355 356 357 358 359
v 360 361 362 363 364 365 366 367 368 369 370 371 372 373 374 375 376 377 378
v 379 380 381 382 383 384 385 386 387 388 389 390 391 392 393 394 395 396 397
v 398 -399 -400 -401 402 403 404 405 406 407 408 409 410 411 412 413 414 415
v 416 417 418 419 420 421 422 423 424 425 426 427 428 429 430 431 432 433 434
v 435 436 437 438 439 440 441 442 443 444 445 446 447 448 449 450 451 452 453
v 454 455 456 457 458 459 460 461 462 463 464 465 466 467 468 469 470 471 472
v -473 -474 -475 -476 477 478 479 480 481 482 483 484 485 486 487 488 489 490
v 491 492 493 494 495 496 497 498 499 500 501 502 503 504 505 506 507 508 509
v 510 511 512 513 514 515 516 517 518 519 520 521 522 523 524 525 526 527 528
v 529 530 531 532 533 534 535 536 537 538 539 540 541 542 543 544 545 546 -547
v -548 -549 -550 -551 -552 553 554 555 556 557 558 559 560 561 562 563 564 565
v 566 567 568 569 570 571 572 573 574 575 576 577 578 579 580 581 582 583 584
v 585 586 587 588 589 590 591 592 593 594 595 596 597 598 599 600 601 602 603
v 604 605 606 607 608 609 610 611 612 613 614 615 616 617 618 619 620 -621
v -622 -623 -624 -625 -626 -627 -628 629 630 631 632 633 634 635 636 637 638
v 639 640 641 642 643 644 645 646 647 648 649 650 651 652 653 654 655 656 657
v 658 659 660 661 662 663 664 665 666 667 668 669 670 671 672 673 674 675 676
v 677 678 679 680 681 682 683 684 685 686 687 688 689 690 691 692 693 694 -695
v -696 -697 -698 -699 -700 -701 -702 -703 -704 -705 -706 -707 -708 -709 -710
v -711 712 713 714 715 716 717 718 719 720 721 722 723 724 725 726 727 728 729
v 730 731 732 733 734 735 736 737 738 739 740 741 742 743 744 745 746 747 748
v 749 750 751 752 753 754 755 756 757 758 759 760 761 762 763 764 765 766 767
v 768 -769 -770 -771 -772 -773 -774 -775 -776 -777 -778 -779 -780 -781 -782
v -783 -784 -785 -786 787 788 789 790 791 792 793 794 795 796 797 798 799 800
v 801 802 803 804 805 806 807 808 809 810 811 812 813 814 815 816 817 818 819
v 820 821 822 823 824 825 826 827 828 829 830 831 832 833 834 835 836 837 838
v 839 840 841 842 -843 -844 -845 -846 -847 -848 -849 -850 -851 -852 -853 -854
v -855 -856 -857 -858 -859 -860 -861 862 863 864 865 866 867 868 869 870 871
v 872 873 874 875 876 877 878 879 880 881 882 883 884 885 886 887 888 889 890
v 891 892 893 894 895 896 897 898 899 900 901 902 903 904 905 906 907 908 909
v 910 911 912 913 914 915 916 -917 -918 -919 -920 -921 -922 -923 -924 -925
v -926 -927 -928 -929 -930 -931 -932 -933 -934 -935 -936 -937 938 939 940 941
v 942 943 944 945 946 947 948 949 950 951 952 953 954 955 956 957 958 959 960
v 961 962 963 964 965 966 967 968 969 970 971 972 973 974 975 976 977 978 979
v 980 981 982 983 984 985 986 987 988 989 990 -991 -992 -993 -994 -995 -996
v -997 -998 -999 -1000 -1001 -1002 -1003 -1004 -1005 -1006 -1007 -1008 -1009
v -1010 -1011 -1012 1013 1014 1015 1016 1017 1018 1019 1020 1021 1022 1023
v 1024 1025 1026 1027 1028 1029 1030 1031 1032 1033 1034 1035 1036 1037 1038
v 1039 1040 1041 1042 1043 1044 1045 1046 1047 1048 1049 1050 1051 1052 1053
v 1054 1055 1056 1057 1058 1059 1060 1061 1062 1063 1064 -1065 -1066 -1067
v -1068 -1069 -1070 -1071 -1072 -1073 -1074 -1075 -1076 -1077 -1078 -1079
v -1080 -1081 -1082 -1083 -1084 -1085 -1086 -1087 -1088 1089 1090 1091 1092
v 1093 1094 1095 1096 1097 1098 1099 1100 1101 1102 1103 1104 1105 1106 1107
v 1108 1109 1110 1111 1112 1113 1114 1115 1116 1117 1118 1119 1120 1121 1122
v 1123 1124 1125 1126 1127 1128 1129 1130 1131 1132 1133 1134 1135 1136 1137
v 1138 -1139 -1140 -1141 -1142 -1143 -1144 -1145 -1146 -1147 -1148 -1149 -1150
v -1151 -1152 -1153 -1154 -1155 -1156 -1157 -1158 -1159 -1160 -1161 -1162
v -1163 -1164 -1165 -1166 -1167 -1168 -1169 -1170 1171 1172 1173 1174 1175
v 1176 1177 1178 1179 1180 1181 1182 1183 1184 1185 1186 1187 1188 1189 1190
v 1191 1192 1193 1194 1195 1196 1197 1198 1199 1200 1201 1202 1203 1204 1205
v 1206 1207 1208 1209 1210 1211 1212 -1213 -1214 -1215 -1216 -1217 -1218 -1219
v -1220 -1221 -1222 -1223 -1224 -1225 -1226 -1227 -1228 -1229 -1230 -1231
v -1232 -1233 -1234 -1235 -1236 -1237 -1238 -1239 -1240 -1241 -1242 -1243
v -1244 -1245 -1246 1247 1248 1249 1250 1251 1252 1253 1254 1255 1256 1257
v 1258 1259 1260 1261 1262 1263 1264 1265 1266 1267 1268 1269 1270 1271 1272
v 1273 1274 1275 1276 1277 1278 1279 1280 1281 1282 1283 1284 1285 1286 -1287
v -1288 -1289 -1290 -1291 -1292 -1293 -1294 -1295 -1296 -1297 -1298 -1299
v -1300 -1301 -1302 -1303 -1304 -1305 -1306 -1307 -1308 -1309 -1310 -1311
v -1312 -1313 -1314 -1315 -1316 -1317 -1318 -1319 -1320 -1321 1322 1323 1324
v 1325 1326 1327 1328 1329 1330 1331 1332 1333 1334 1335 1336 1337 1338 1339
v 1340 1341 1342 1343 1344 1345 1346 1347 1348 1349 1350 1351 1352 1353 1354
v 1355 1356 1357 1358 1359 1360 -1361 -1362 -1363 -1364 -1365 -1366 -1367
v -1368 -1369 -1370 -1371 -1372 -1373 -1374 -1375 -1376 -1377 -1378 -1379
v -1380 -1381 -1382 -1383 -1384 -1385 -1386 -1387 -1388 -1389 -1390 -1391
v -1392 -1393 -1394 -1395 -1396 -1397 -1398 -1399 1400 1401 1402 1403 1404
v 1405 1406 1407 1408 1409 1410 1411 1412 1413 1414 1415 1416 1417 1418 1419
v 1420 1421 1422 1423 1424 1425 1426 1427 1428 1429 1430 1431 1432 1433 1434
v -1435 -1436 -1437 -1438 -1439 -1440 -1441 -1442 -1443 -1444 -1445 -1446
v -1447 -1448 -1449 -1450 -1451 -1452 -1453 -1454 -1455 -1456 -1457 -1458
v -1459 -1460 -1461 -1462 -1463 -1464 -1465 -1466 -1467 -1468 -1469 -1470
v -1471 -1472 -1473 -1474 1475 1476 1477 1478 1479 1480 1481 1482 1483 1484
v 1485 1486 1487 1488 1489 1490 1491 1492 1493 1494 1495 1496 1497 1498 1499
v 1500 1501 1502 1503 1504 1505 1506 1507 1508 -1509 -1510 -1511 -1512 -1513
v -1514 -1515 -1516 -1517 -1518 -1519 -1520 -1521 -1522 -1523 -1524 -1525
v -1526 -1527 -1528 -1529 -1530 -1531 -1532 -1533 -1534 -1535 -1536 -1537
v -1538 -1539 -1540 -1541 -1542 -1543 -1544 -1545 -1546 -1547 -1548 -1549 1550
v 1551 1552 1553 1554 1555 1556 1557 1558 1559 1560 1561 1562 1563 1564 1565
v 1566 1567 1568 1569 1570 1571 1572 1573 1574 1575 1576 1577 1578 1579 1580
v 1581 1582 -1583 -1584 -1585 -1586 -1587 -1588 -1589 -1590 -1591 -1592 -1593
v -1594 -1595 -1596 -1597 -1598 -1599 -1600 -1601 -1602 -1603 -1604 -1605
v -1606 -1607 -1608 -1609 -1610 -1611 -1612 -1613 -1614 -1615 -1616 -1617
v -1618 -1619 -1620 -1621 -1622 -1623 -1624 -1625 1626 1627 1628 1629 1630
v 1631 1632 1633 1634 1635 1636 1637 1638 1639 1640 1641 1642 1643 1644 1645
v 1646 1647 1648 1649 1650 1651 1652 1653 1654 1655 1656 -1657 -1658 -1659
v -1660 -1661 -1662 -1663 -1664 -1665 -1666 -1667 -1668 -1669 -1670 -1671
v -1672 -1673 -1674 -1675 -1676 -1677 -1678 -1679 -1680 -1681 -1682 -1683
v -1684 -1685 -1686 -1687 -1688 -1689 -1690 -1691 -1692 -1693 -1694 -1695
v -1696 -1697 -1698 -1699 -1700 -1701 1702 1703 1704 1705 1706 1707 1708 1709
v 1710 1711 1712 1713 1714 1715 1716 1717 1718 1719 1720 1721 1722 1723 1724
v 1725 1726 1727 1728 1729 1730 -1731 -1732 -1733 -1734 -1735 -1736 -1737
v -1738 -1739 -1740 -1741 -1742 -1743 -1744 -1745 -1746 -1747 -1748 -1749
v -1750 -1751 -1752 -1753 -1754 -1755 -1756 -1757 -1758 -1759 -1760 -1761
v -1762 -1763 -1764 -1765 -1766 -1767 -1768 -1769 -1770 -1771 -1772 -1773
v -1774 -1775 -1776 -1777 -1778 1779 1780 1781 1782 1783 1784 1785 1786 1787
v 1788 1789 1790 1791 1792 1793 1794 1795 1796 1797 1798 1799 1800 1801 1802
v 1803 1804 -1805 -1806 -1807 -1808 -1809 -1810 -1811 -1812 -1813 -1814 -1815
v -1816 -1817 -1818 -1819 -1820 -1821 -1822 -1823 -1824 -1825 -1826 -1827
v -1828 -1829 -1830 -1831 -1832 -1833 -1834 -1835 -1836 -1837 -1838 -1839
v -1840 -1841 -1842 -1843 -1844 -1845 -1846 -1847 -1848 -1849 -1850 -1851
v -1852 -1853 -1854 1855 1856 1857 1858 1859 1860 1861 1862 1863 1864 1865
v 1866 1867 1868 1869 1870 1871 1872 1873 1874 1875 1876 1877 1878 -1879 -1880
v -1881 -1882 -1883 -1884 -1885 -1886 -1887 -1888 -1889 -1890 -1891 -1892
v -1893 -1894 -1895 -1896 -1897 -1898 -1899 -1900 -1901 -1902 -1903 -1904
v -1905 -1906 -1907 -1908 -1909 -1910 -1911 -1912 -1913 -1914 -1915 -1916
v -1917 -1918 -1919 -1920 -1921 -1922 -1923 -1924 -1925 -1926 -1927 -1928
v -1929 -1930 1931 1932 1933 1934 1935 1936 1937 1938 1939 1940 1941 1942 1943
v 1944 1945 1946 1947 1948 1949 1950 1951 1952 -1953 -1954 -1955 -1956 -1957
v -1958 -1959 -1960 -1961 -1962 -1963 -1964 -1965 -1966 -1967 -1968 -1969
v -1970 -1971 -1972 -1973 -1974 -1975 -1976 -1977 -1978 -1979 -1980 -1981
v -1982 -1983 -1984 -1985 -1986 -1987 -1988 -1989 -1990 -1991 -1992 -1993
v -1994 -1995 -1996 -1997 -1998 -1999 -2000 -2001 -2002 -2003 -2004 -2005
v -2006 2007 2008 2009 2010 2011 2012 2013 2014 2015 2016 2017 2018 2019 2020
v 2021 2022 2023 2024 2025 2026 -2027 -2028 -2029 -2030 -2031 -2032 -2033
v -2034 -2035 -2036 -2037 -2038 -2039 -2040 -2041 -2042 -2043 -2044 -2045
v -2046 -2047 -2048 -2049 -2050 -2051 -2052 -2053 -2054 -2055 -2056 -2057
v -2058 -2059 -2060 -2061 -2062 -2063 -2064 -2065 -2066 -2067 -2068 -2069
v -2070 -2071 -2072 -2073 -2074 -2075 -2076 -2077 -2078 -2079 -2080 -2081 2082
v 2083 2084 2085 2086 2087 2088 2089 2090 2091 2092 2093 2094 2095 2096 2097
v 2098 2099 2100 -2101 -2102 -2103 -2104 -2105 -2106 -2107 -2108 -2109 -2110
v -2111 -2112 -2113 -2114 -2115 -2116 -2117 -2118 -2119 -2120 -2121 -2122
v -2123 -2124 -2125 -2126 -2127 -2128 -2129 -2130 -2131 -2132 -2133 -2134
v -2135 -2136 -2137 -2138 -2139 -2140 -2141 -2142 -2143 -2144 -2145 -2146
v -2147 -2148 -2149 -2150 -2151 -2152 -2153 -2154 -2155 -2156 -2157 -2158 2159
v 2160 2161 2162 2163 2164 2165 2166 2167 2168 2169 2170 2171 2172 2173 2174
v -2175 -2176 -2177 -2178 -2179 -2180 -2181 -2182 -2183 -2184 -2185 -2186
v -2187 -2188 -2189 -2190 -2191 -2192 -2193 -2194 -2195 -2196 -2197 -2198
v -2199 -2200 -2201 -2202 -2203 -2204 -2205 -2206 -2207 -2208 -2209 -2210
v -2211 -2212 -2213 -2214 -2215 -2216 -2217 -2218 -2219 -2220 -2221 -2222
v -2223 -2224 -2225 -2226 -2227 -2228 -2229 -2230 -2231 -2232 -2233 -2234
v -2235 -2236 -2237 -2238 2239 2240 2241 2242 2243 2244 2245 2246 2247 2248
v -2249 -2250 -2251 -2252 -2253 -2254 -2255 -2256 -2257 -2258 -2259 -2260
v -2261 -2262 -2263 -2264 -2265 -2266 -2267 -2268 -2269 -2270 -2271 -2272
v -2273 -2274 -2275 -2276 -2277 -2278 -2279 -2280 -2281 -2282 -2283 -2284
v -2285 -2286 -2287 -2288 -2289 -2290 -2291 -2292 -2293 -2294 -2295 -2296
v -2297 -2298 -2299 -2300 -2301 -2302 -2303 -2304 -2305 -2306 -2307 -2308
v -2309 -2310 -2311 -2312 -2313 2314 2315 2316 2317 2318 2319 2320 2321 2322
v -2323 -2324 -2325 -2326 -2327 -2328 -2329 -2330 -2331 -2332 -2333 -2334
v -2335 -2336 -2337 -2338 -2339 -2340 -2341 -2342 -2343 -2344 -2345 -2346
v -2347 -2348 -2349 -2350 -2351 -2352 -2353 -2354 -2355 -2356 -2357 -2358
v -2359 -2360 -2361 -2362 -2363 -2364 -2365 -2366 -2367 -2368 -2369 -2370
v -2371 -2372 -2373 -2374 -2375 -2376 -2377 -2378 -2379 -2380 -2381 -2382
v -2383 -2384 -2385 -2386 -2387 -2388 -2389 2390 2391 2392 2393 2394 2395 2396
v -2397 -2398 -2399 -2400 -2401 -2402 -2403 -2404 -2405 -2406 -2407 -2408
v -2409 -2410 -2411 -2412 -2413 -2414 -2415 -2416 -2417 -2418 -2419 -2420
v -2421 -2422 -2423 -2424 -2425 -2426 -2427 -2428 -2429 -2430 -2431 -2432
v -2433 -2434 -2435 -2436 -2437 -2438 -2439 -2440 -2441 -2442 -2443 -2444
v -2445 -2446 -2447 -2448 -2449 -2450 -2451 -2452 -2453 -2454 -2455 -2456
v -2457 -2458 -2459 -2460 -2461 -2462 -2463 -2464 2465 2466 2467 2468 2469
v 2470 -2471 -2472 -2473 -2474 -2475 -2476 -2477 -2478 -2479 -2480 -2481 -2482
v -2483 -2484 -2485 -2486 -2487 -2488 -2489 -2490 -2491 -2492 -2493 -2494
v -2495 -2496 -2497 -2498 -2499 -2500 -2501 -2502 -2503 -2504 -2505 -2506
v -2507 -2508 -2509 -2510 -2511 -2512 -2513 -2514 -2515 -2516 -2517 -2518
v -2519 -2520 -2521 -2522 -2523 -2524 -2525 -2526 -2527 -2528 -2529 -2530
v -2531 -2532 -2533 -2534 -2535 -2536 -2537 -2538 -2539 -2540 -2541 2542 2543
v 2544 -2545 -2546 -2547 -2548 -2549 -2550 -2551 -2552 -2553 -2554 -2555 -2556
v -2557 -2558 -2559 -2560 -2561 -2562 -2563 -2564 -2565 -2566 -2567 -2568
v -2569 -2570 -2571 -2572 -2573 -2574 -2575 -2576 -2577 -2578 -2579 -2580
v -2581 -2582 -2583 -2584 -2585 -2586 -2587 -2588 -2589 -2590 -2591 -2592
v -2593 -2594 -2595 -2596 -2597 -2598 -2599 -2600 -2601 -2602 -2603 -2604
v -2605 -2606 -2607 -2608 -2609 -2610 -2611 -2612 -2613 -2614 -2615 -2616
v -2617 2618 -2619 -2620 -2621 -2622 -2623 -2624 -2625 -2626 -2627 -2628 -2629
v -2630 -2631 -2632 -2633 -2634 -2635 -2636 -2637 -2638 -2639 -2640 -2641
v -2642 -2643 -2644 -2645 -2646 -2647 -2648 -2649 -2650 -2651 -2652 -2653
v -2654 -2655 -2656 -2657 -2658 -2659 -2660 -2661 -2662 -2663 -2664 -2665
v -2666 -2667 -2668 -2669 -2670 -2671 -2672 -2673 -2674 -2675 -2676 -2677
v -2678 -2679 -2680 -2681 -2682 -2683 -2684 -2685 -2686 -2687 -2688 -2689
v -2690 -2691 -2692 0
c 
c --- [ run-time profiling ] -------------------------------------------------
c 
c process time taken by individual solving procedures
c (percentage relative to process time for solving)
c 
c        44.30   97.45% search
c        23.43   51.55% unstable
c        20.02   44.04% stable
c         1.16    2.55% simplify
c         0.85    1.86% walk
c         0.53    1.18% subsume
c         0.28    0.61% vivify
c         0.12    0.26% probe
c         0.08    0.17% elim
c         0.05    0.11% ternary
c         0.00    0.01% parse
c         0.00    0.00% lucky
c   =================================
c        45.46   99.99% solve
c 
c last line shows process time for solving
c (percentage relative to total process time)
c 
c --- [ statistics ] ---------------------------------------------------------
c 
c chronological:            133387        21.17 %  of conflicts
c conflicts:                630065     13859.04    per second
c decisions:               1204432     26492.94    per second
c eliminated:                 2050        76.15 %  of all variables
c fixed:                        79         2.93 %  of all variables
c learned:                  618058        98.09 %  per conflict
c learned_lits:           23584841       100.00 %  learned literals
c minimized:                     0         0.00 %  learned literals
c shrunken:                6948462        29.46 %  learned literals
c minishrunken:            2495429        10.58 %  learned literals
c propagations:           55547265         1.22 M  per second
c reduced:                  495493        78.64 %  per conflict
c rephased:                     35     18001.86    interval
c restarts:                  26397        23.87    interval
c stabilizing:                   5        45.88 %  of conflicts
c subsumed:                  69827         5.49 %  of all clauses
c strengthened:               6444         0.51 %  of all clauses
c ternary:                       5         0.01 %  of resolved
c vivified:                     74         0.01 %  of all clauses
c walked:                       11     57278.64    interval
c weakened:                   8799         2.89    average size
c 
c seconds are measured in process time for solving
c 
c --- [ resources ] ----------------------------------------------------------
c 
c total process time since initialization:        45.47    seconds
c total real time since initialization:           45.50    seconds
c maximum resident set size of process:           20.14    MB
c 
c --- [ shutting down ] ------------------------------------------------------
c 
c exit 10
